% demand
num_movements = 37;
loading_factor = [1800, 950, 1450, 800, 1100, 1850, 1950, 1050, 1000, 1450, 1800, 1900, 1000, 950, 1600, 1350, 1750, 1850, 1700, 1700, 1150, 1150, 1700, 1950, 2000, 1200, 1000, 1150, 800, 1450, 1600, 1500, 1100, 1550, 2000, 2000, 1450];
pickup_time = [0, 0, 0, 0, 0, 0, 0, 0, 1, 1, 2, 2, 2, 2, 2, 3, 3, 4, 5, 5, 6, 6, 6, 8, 8, 9, 9, 9, 11, 12, 12, 12, 12, 12, 12, 13, 13];
delivery_time = [2, 1, 1, 2, 2, 2, 3, 2, 2, 3, 3, 5, 5, 5, 3, 5, 4, 5, 7, 8, 8, 7, 7, 10, 11, 10, 11, 10, 14, 14, 14, 13, 13, 14, 14, 14, 14];

% transporter definition
total_capacity = 11000;
num_decks = 4;
capacity = [3000, 3000, 1000, 4000];

% ways out of decks
num_ways_out = 2;
paths_out = array3d(decks, ways_out, decks, [
% ways out of deck d1
2, 4, 0, 0, 3, 4, 0, 0, 

% ways out of deck d2
4, 0, 0, 0, 0, 0, 0, 0,	

% ways out of deck d3
4, 0, 0, 0, 0, 0, 0, 0,	

% ways out of deck d4
0, 0, 0, 0,	0, 0, 0, 0,	

]);

